SECTION Graph
Nodes 898
Edges 1562
E 1 2 5
E 2 3 5
E 3 4 5
E 4 5 5
E 5 6 5
E 6 7 5
E 7 8 5
E 8 9 5
E 9 10 5
E 10 11 5
E 12 13 5
E 13 14 5
E 14 15 5
E 15 16 5
E 16 17 5
E 17 18 5
E 18 19 5
E 20 21 5
E 21 22 5
E 22 23 5
E 23 24 5
E 24 25 5
E 25 26 5
E 26 27 5
E 27 28 5
E 28 29 5
E 29 30 5
E 30 31 5
E 1 32 13
E 2 33 13
E 3 34 13
E 4 35 13
E 5 36 13
E 6 37 13
E 7 38 13
E 8 39 13
E 9 40 13
E 10 41 13
E 11 42 13
E 12 43 13
E 13 44 13
E 14 45 13
E 15 46 13
E 16 47 13
E 17 48 13
E 18 49 13
E 19 50 13
E 20 51 13
E 21 52 13
E 22 53 13
E 23 54 13
E 24 55 13
E 25 56 13
E 27 57 13
E 28 58 13
E 29 59 13
E 31 61 13
E 32 33 5
E 33 34 5
E 34 35 5
E 35 36 5
E 36 37 5
E 37 38 5
E 38 39 5
E 39 40 5
E 40 41 5
E 41 42 5
E 43 44 5
E 44 45 5
E 45 46 5
E 46 47 5
E 47 48 5
E 48 49 5
E 49 50 5
E 51 52 5
E 52 53 5
E 53 54 5
E 54 55 5
E 55 56 5
E 57 58 5
E 58 59 5
E 59 60 5
E 60 61 5
E 32 62 13
E 33 63 13
E 34 64 13
E 35 65 13
E 36 66 13
E 37 67 13
E 38 68 13
E 39 69 13
E 40 70 13
E 41 71 13
E 42 72 13
E 43 74 13
E 44 75 13
E 46 76 13
E 47 77 13
E 48 78 13
E 49 79 13
E 50 80 13
E 51 82 13
E 52 83 13
E 53 84 13
E 54 85 13
E 55 86 13
E 56 87 13
E 57 88 13
E 59 90 13
E 60 91 13
E 61 92 13
E 62 63 5
E 63 64 5
E 64 65 5
E 65 66 5
E 66 67 5
E 67 68 5
E 68 69 5
E 69 70 5
E 70 71 5
E 71 72 5
E 72 73 5
E 73 74 5
E 74 75 5
E 76 77 5
E 77 78 5
E 78 79 5
E 79 80 5
E 80 81 5
E 81 82 5
E 82 83 5
E 83 84 5
E 84 85 5
E 85 86 5
E 86 87 5
E 88 89 5
E 89 90 5
E 90 91 5
E 91 92 5
E 62 93 13
E 63 94 13
E 64 95 13
E 65 96 13
E 66 97 13
E 67 98 13
E 68 99 13
E 69 100 13
E 70 101 13
E 72 103 13
E 73 104 13
E 74 105 13
E 75 106 13
E 76 107 13
E 77 108 13
E 78 109 13
E 80 111 13
E 81 112 13
E 82 113 13
E 83 114 13
E 84 115 13
E 87 118 13
E 88 120 13
E 89 121 13
E 90 122 13
E 91 123 13
E 92 124 13
E 93 94 5
E 94 95 5
E 95 96 5
E 96 97 5
E 97 98 5
E 98 99 5
E 99 100 5
E 100 101 5
E 101 102 5
E 102 103 5
E 103 104 5
E 104 105 5
E 105 106 5
E 107 108 5
E 108 109 5
E 109 110 5
E 110 111 5
E 111 112 5
E 112 113 5
E 113 114 5
E 114 115 5
E 115 116 5
E 116 117 5
E 117 118 5
E 118 119 5
E 119 120 5
E 120 121 5
E 121 122 5
E 122 123 5
E 123 124 5
E 93 125 13
E 94 126 13
E 95 127 13
E 96 128 13
E 97 129 13
E 98 130 13
E 99 131 13
E 100 132 13
E 101 133 13
E 102 134 13
E 103 135 13
E 104 136 13
E 105 137 13
E 106 138 13
E 107 140 13
E 108 141 13
E 109 142 13
E 110 143 13
E 111 144 13
E 112 145 13
E 113 146 13
E 114 147 13
E 115 148 13
E 116 149 13
E 117 150 13
E 118 151 13
E 119 152 13
E 120 153 13
E 121 154 13
E 122 155 13
E 123 156 13
E 124 157 13
E 125 126 5
E 126 127 5
E 127 128 5
E 128 129 5
E 129 130 5
E 130 131 5
E 131 132 5
E 132 133 5
E 133 134 5
E 134 135 5
E 135 136 5
E 136 137 5
E 137 138 5
E 138 139 5
E 139 140 5
E 140 141 5
E 141 142 5
E 142 143 5
E 143 144 5
E 144 145 5
E 145 146 5
E 146 147 5
E 147 148 5
E 148 149 5
E 149 150 5
E 150 151 5
E 151 152 5
E 152 153 5
E 153 154 5
E 154 155 5
E 155 156 5
E 156 157 5
E 125 158 13
E 126 159 13
E 127 160 13
E 128 161 13
E 129 162 13
E 130 163 13
E 131 164 13
E 132 165 13
E 133 166 13
E 135 167 13
E 136 168 13
E 137 169 13
E 138 170 13
E 139 171 13
E 140 172 13
E 141 173 13
E 142 174 13
E 143 175 13
E 144 176 13
E 145 177 13
E 146 178 13
E 148 179 13
E 150 180 13
E 151 181 13
E 152 182 13
E 153 183 13
E 157 184 13
E 158 159 5
E 159 160 5
E 160 161 5
E 161 162 5
E 162 163 5
E 163 164 5
E 164 165 5
E 165 166 5
E 167 168 5
E 168 169 5
E 169 170 5
E 170 171 5
E 171 172 5
E 172 173 5
E 173 174 5
E 174 175 5
E 175 176 5
E 176 177 5
E 177 178 5
E 180 181 5
E 181 182 5
E 182 183 5
E 158 185 13
E 159 186 13
E 160 187 13
E 161 188 13
E 162 189 13
E 163 190 13
E 164 191 13
E 165 192 13
E 166 193 13
E 167 194 13
E 168 195 13
E 169 196 13
E 170 197 13
E 171 198 13
E 172 199 13
E 173 200 13
E 174 201 13
E 175 202 13
E 176 203 13
E 177 204 13
E 178 205 13
E 179 206 13
E 180 207 13
E 181 208 13
E 182 209 13
E 183 210 13
E 184 214 13
E 185 186 5
E 186 187 5
E 187 188 5
E 188 189 5
E 189 190 5
E 190 191 5
E 191 192 5
E 192 193 5
E 194 195 5
E 195 196 5
E 196 197 5
E 197 198 5
E 198 199 5
E 199 200 5
E 200 201 5
E 201 202 5
E 202 203 5
E 203 204 5
E 204 205 5
E 207 208 5
E 208 209 5
E 209 210 5
E 210 211 5
E 211 212 5
E 212 213 5
E 213 214 5
E 185 215 13
E 186 216 13
E 187 217 13
E 190 220 13
E 191 221 13
E 192 222 13
E 193 223 13
E 194 225 13
E 195 226 13
E 196 227 13
E 197 228 13
E 198 229 13
E 199 230 13
E 200 231 13
E 202 233 13
E 203 234 13
E 204 235 13
E 205 236 13
E 206 238 13
E 207 240 13
E 208 241 13
E 209 242 13
E 210 243 13
E 211 244 13
E 212 245 13
E 213 246 13
E 214 247 13
E 215 216 5
E 216 217 5
E 217 218 5
E 218 219 5
E 219 220 5
E 220 221 5
E 221 222 5
E 222 223 5
E 223 224 5
E 224 225 5
E 225 226 5
E 226 227 5
E 227 228 5
E 228 229 5
E 229 230 5
E 230 231 5
E 231 232 5
E 232 233 5
E 233 234 5
E 234 235 5
E 235 236 5
E 236 237 5
E 237 238 5
E 238 239 5
E 239 240 5
E 240 241 5
E 241 242 5
E 242 243 5
E 243 244 5
E 244 245 5
E 245 246 5
E 246 247 5
E 216 248 13
E 217 249 13
E 218 250 13
E 219 251 13
E 220 252 13
E 221 253 13
E 222 254 13
E 223 255 13
E 224 256 13
E 225 257 13
E 226 258 13
E 227 259 13
E 228 260 13
E 229 261 13
E 230 262 13
E 231 263 13
E 232 264 13
E 233 265 13
E 234 266 13
E 235 267 13
E 236 268 13
E 237 269 13
E 238 270 13
E 239 271 13
E 240 272 13
E 241 273 13
E 242 274 13
E 243 275 13
E 244 276 13
E 245 277 13
E 246 278 13
E 247 279 13
E 248 249 5
E 249 250 5
E 250 251 5
E 251 252 5
E 252 253 5
E 253 254 5
E 254 255 5
E 255 256 5
E 256 257 5
E 257 258 5
E 258 259 5
E 259 260 5
E 260 261 5
E 261 262 5
E 262 263 5
E 263 264 5
E 264 265 5
E 265 266 5
E 266 267 5
E 267 268 5
E 268 269 5
E 269 270 5
E 270 271 5
E 271 272 5
E 272 273 5
E 273 274 5
E 274 275 5
E 275 276 5
E 276 277 5
E 277 278 5
E 278 279 5
E 248 280 13
E 249 281 13
E 250 282 13
E 251 283 13
E 252 284 13
E 253 285 13
E 254 286 13
E 255 287 13
E 256 288 13
E 257 289 13
E 258 290 13
E 259 291 13
E 260 292 13
E 261 293 13
E 262 294 13
E 263 295 13
E 264 296 13
E 265 297 13
E 266 298 13
E 267 299 13
E 268 300 13
E 269 301 13
E 270 302 13
E 271 303 13
E 272 304 13
E 273 305 13
E 274 306 13
E 275 307 13
E 276 308 13
E 277 309 13
E 278 310 13
E 279 311 13
E 280 281 5
E 281 282 5
E 282 283 5
E 283 284 5
E 284 285 5
E 285 286 5
E 286 287 5
E 287 288 5
E 288 289 5
E 289 290 5
E 290 291 5
E 291 292 5
E 292 293 5
E 293 294 5
E 294 295 5
E 295 296 5
E 296 297 5
E 297 298 5
E 298 299 5
E 299 300 5
E 300 301 5
E 301 302 5
E 302 303 5
E 303 304 5
E 304 305 5
E 305 306 5
E 306 307 5
E 307 308 5
E 308 309 5
E 309 310 5
E 310 311 5
E 280 313 13
E 281 314 13
E 282 315 13
E 283 316 13
E 284 317 13
E 285 318 13
E 286 319 13
E 287 320 13
E 288 321 13
E 289 322 13
E 290 323 13
E 291 324 13
E 292 325 13
E 293 326 13
E 294 327 13
E 295 328 13
E 296 329 13
E 297 330 13
E 298 331 13
E 299 332 13
E 300 333 13
E 303 336 13
E 304 337 13
E 305 338 13
E 306 339 13
E 307 340 13
E 308 341 13
E 309 342 13
E 310 343 13
E 311 344 13
E 312 313 5
E 313 314 5
E 314 315 5
E 315 316 5
E 316 317 5
E 317 318 5
E 318 319 5
E 319 320 5
E 320 321 5
E 321 322 5
E 322 323 5
E 323 324 5
E 324 325 5
E 325 326 5
E 326 327 5
E 327 328 5
E 328 329 5
E 329 330 5
E 330 331 5
E 331 332 5
E 332 333 5
E 333 334 5
E 334 335 5
E 335 336 5
E 336 337 5
E 337 338 5
E 338 339 5
E 339 340 5
E 340 341 5
E 341 342 5
E 342 343 5
E 343 344 5
E 312 345 13
E 313 346 13
E 315 348 13
E 316 349 13
E 317 350 13
E 318 351 13
E 319 352 13
E 320 353 13
E 321 354 13
E 322 355 13
E 323 356 13
E 325 357 13
E 326 358 13
E 327 359 13
E 328 360 13
E 329 361 13
E 330 362 13
E 331 363 13
E 332 364 13
E 333 365 13
E 334 366 13
E 335 367 13
E 336 368 13
E 337 369 13
E 338 370 13
E 341 373 13
E 342 374 13
E 343 375 13
E 344 376 13
E 345 346 5
E 346 347 5
E 347 348 5
E 348 349 5
E 349 350 5
E 350 351 5
E 351 352 5
E 352 353 5
E 353 354 5
E 354 355 5
E 355 356 5
E 357 358 5
E 358 359 5
E 359 360 5
E 360 361 5
E 361 362 5
E 362 363 5
E 363 364 5
E 364 365 5
E 365 366 5
E 366 367 5
E 367 368 5
E 368 369 5
E 369 370 5
E 370 371 5
E 371 372 5
E 372 373 5
E 373 374 5
E 374 375 5
E 375 376 5
E 345 377 13
E 348 380 13
E 349 381 13
E 350 382 13
E 351 383 13
E 352 384 13
E 353 385 13
E 354 386 13
E 355 387 13
E 356 388 13
E 357 390 13
E 358 391 13
E 359 392 13
E 360 393 13
E 361 394 13
E 362 395 13
E 363 396 13
E 364 397 13
E 365 398 13
E 366 399 13
E 367 400 13
E 368 401 13
E 369 402 13
E 370 403 13
E 371 404 13
E 372 405 13
E 373 406 13
E 374 407 13
E 375 408 13
E 376 409 13
E 377 378 5
E 378 379 5
E 379 380 5
E 380 381 5
E 381 382 5
E 382 383 5
E 383 384 5
E 384 385 5
E 385 386 5
E 386 387 5
E 387 388 5
E 388 389 5
E 389 390 5
E 390 391 5
E 391 392 5
E 392 393 5
E 393 394 5
E 394 395 5
E 395 396 5
E 396 397 5
E 397 398 5
E 398 399 5
E 399 400 5
E 400 401 5
E 401 402 5
E 402 403 5
E 403 404 5
E 404 405 5
E 405 406 5
E 406 407 5
E 407 408 5
E 408 409 5
E 378 410 13
E 381 413 13
E 383 414 13
E 384 415 13
E 385 416 13
E 386 417 13
E 387 418 13
E 388 419 13
E 389 420 13
E 390 421 13
E 391 422 13
E 392 423 13
E 393 424 13
E 394 425 13
E 395 426 13
E 396 427 13
E 397 428 13
E 398 429 13
E 399 430 13
E 400 431 13
E 401 432 13
E 402 433 13
E 403 434 13
E 404 435 13
E 405 436 13
E 406 437 13
E 407 438 13
E 408 439 13
E 409 440 13
E 410 411 5
E 411 412 5
E 412 413 5
E 414 415 5
E 415 416 5
E 416 417 5
E 417 418 5
E 418 419 5
E 419 420 5
E 420 421 5
E 421 422 5
E 422 423 5
E 423 424 5
E 424 425 5
E 425 426 5
E 426 427 5
E 427 428 5
E 428 429 5
E 429 430 5
E 430 431 5
E 431 432 5
E 432 433 5
E 433 434 5
E 434 435 5
E 435 436 5
E 436 437 5
E 437 438 5
E 438 439 5
E 439 440 5
E 410 441 13
E 411 442 13
E 412 443 13
E 413 444 13
E 414 445 13
E 417 448 13
E 418 449 13
E 419 450 13
E 420 451 13
E 421 452 13
E 422 453 13
E 423 454 13
E 425 456 13
E 426 457 13
E 427 458 13
E 428 459 13
E 429 460 13
E 431 462 13
E 432 463 13
E 433 464 13
E 434 465 13
E 435 466 13
E 436 467 13
E 437 468 13
E 438 469 13
E 439 470 13
E 440 471 13
E 441 442 5
E 442 443 5
E 443 444 5
E 445 446 5
E 446 447 5
E 447 448 5
E 448 449 5
E 449 450 5
E 450 451 5
E 451 452 5
E 452 453 5
E 453 454 5
E 454 455 5
E 455 456 5
E 456 457 5
E 457 458 5
E 458 459 5
E 459 460 5
E 460 461 5
E 461 462 5
E 462 463 5
E 463 464 5
E 464 465 5
E 465 466 5
E 466 467 5
E 467 468 5
E 468 469 5
E 469 470 5
E 470 471 5
E 441 473 13
E 442 474 13
E 444 475 13
E 445 477 13
E 446 478 13
E 447 479 13
E 448 480 13
E 449 481 13
E 451 482 13
E 452 483 13
E 454 485 13
E 455 486 13
E 456 487 13
E 457 488 13
E 458 489 13
E 459 490 13
E 460 491 13
E 463 494 13
E 464 495 13
E 465 496 13
E 467 498 13
E 468 499 13
E 469 500 13
E 470 501 13
E 471 502 13
E 472 473 5
E 473 474 5
E 475 476 5
E 476 477 5
E 477 478 5
E 478 479 5
E 479 480 5
E 480 481 5
E 482 483 5
E 483 484 5
E 484 485 5
E 485 486 5
E 486 487 5
E 487 488 5
E 488 489 5
E 489 490 5
E 490 491 5
E 491 492 5
E 492 493 5
E 493 494 5
E 494 495 5
E 495 496 5
E 496 497 5
E 497 498 5
E 498 499 5
E 499 500 5
E 500 501 5
E 501 502 5
E 472 503 13
E 473 504 13
E 474 505 13
E 475 506 13
E 476 507 13
E 477 508 13
E 479 509 13
E 480 510 13
E 481 511 13
E 482 512 13
E 483 513 13
E 485 514 13
E 486 515 13
E 487 516 13
E 489 517 13
E 491 519 13
E 493 520 13
E 494 521 13
E 495 522 13
E 496 523 13
E 498 524 13
E 499 525 13
E 500 526 13
E 501 527 13
E 502 528 13
E 503 504 5
E 504 505 5
E 506 507 5
E 507 508 5
E 509 510 5
E 510 511 5
E 512 513 5
E 514 515 5
E 515 516 5
E 517 518 5
E 518 519 5
E 520 521 5
E 521 522 5
E 522 523 5
E 524 525 5
E 525 526 5
E 526 527 5
E 527 528 5
E 504 529 13
E 505 530 13
E 506 532 13
E 508 533 13
E 509 534 13
E 511 535 13
E 512 537 13
E 513 538 13
E 514 539 13
E 515 540 13
E 516 541 13
E 517 542 13
E 518 543 13
E 519 544 13
E 520 545 13
E 521 546 13
E 522 547 13
E 523 548 13
E 524 549 13
E 526 550 13
E 527 551 13
E 528 552 13
E 529 530 5
E 530 531 5
E 531 532 5
E 535 536 5
E 536 537 5
E 537 538 5
E 539 540 5
E 540 541 5
E 542 543 5
E 543 544 5
E 545 546 5
E 546 547 5
E 547 548 5
E 550 551 5
E 551 552 5
E 529 553 13
E 530 554 13
E 531 555 13
E 532 556 13
E 533 557 13
E 534 559 13
E 535 560 13
E 536 561 13
E 537 562 13
E 538 563 13
E 539 565 13
E 540 566 13
E 541 567 13
E 542 569 13
E 543 570 13
E 544 571 13
E 545 573 13
E 546 574 13
E 547 575 13
E 548 576 13
E 549 578 13
E 550 579 13
E 551 580 13
E 552 581 13
E 553 554 5
E 554 555 5
E 555 556 5
E 557 558 5
E 558 559 5
E 560 561 5
E 561 562 5
E 562 563 5
E 563 564 5
E 564 565 5
E 565 566 5
E 566 567 5
E 567 568 5
E 568 569 5
E 569 570 5
E 570 571 5
E 571 572 5
E 572 573 5
E 573 574 5
E 574 575 5
E 575 576 5
E 576 577 5
E 577 578 5
E 579 580 5
E 580 581 5
E 553 583 13
E 554 584 13
E 555 585 13
E 556 586 13
E 557 588 13
E 558 589 13
E 559 590 13
E 560 592 13
E 562 593 13
E 563 594 13
E 564 595 13
E 565 596 13
E 566 597 13
E 567 598 13
E 568 599 13
E 569 600 13
E 570 601 13
E 571 602 13
E 572 603 13
E 573 604 13
E 575 606 13
E 576 607 13
E 577 608 13
E 578 609 13
E 579 611 13
E 580 612 13
E 581 613 13
E 582 583 5
E 583 584 5
E 584 585 5
E 585 586 5
E 586 587 5
E 587 588 5
E 588 589 5
E 589 590 5
E 590 591 5
E 591 592 5
E 593 594 5
E 594 595 5
E 595 596 5
E 596 597 5
E 597 598 5
E 598 599 5
E 599 600 5
E 600 601 5
E 601 602 5
E 602 603 5
E 603 604 5
E 604 605 5
E 605 606 5
E 606 607 5
E 607 608 5
E 608 609 5
E 609 610 5
E 610 611 5
E 611 612 5
E 612 613 5
E 582 614 13
E 583 615 13
E 584 616 13
E 585 617 13
E 586 618 13
E 587 619 13
E 588 620 13
E 589 621 13
E 590 622 13
E 591 623 13
E 592 624 13
E 593 625 13
E 594 626 13
E 595 627 13
E 596 628 13
E 598 629 13
E 600 630 13
E 602 631 13
E 603 632 13
E 604 633 13
E 606 634 13
E 607 635 13
E 609 636 13
E 610 637 13
E 611 638 13
E 613 639 13
E 614 615 5
E 615 616 5
E 616 617 5
E 617 618 5
E 618 619 5
E 619 620 5
E 620 621 5
E 621 622 5
E 622 623 5
E 623 624 5
E 625 626 5
E 626 627 5
E 627 628 5
E 631 632 5
E 632 633 5
E 634 635 5
E 636 637 5
E 637 638 5
E 614 640 13
E 615 641 13
E 616 642 13
E 617 643 13
E 618 644 13
E 620 646 13
E 621 647 13
E 624 650 13
E 625 652 13
E 626 653 13
E 627 654 13
E 628 655 13
E 629 656 13
E 630 657 13
E 631 658 13
E 632 659 13
E 633 660 13
E 634 661 13
E 635 662 13
E 636 663 13
E 638 665 13
E 639 666 13
E 640 641 5
E 641 642 5
E 642 643 5
E 643 644 5
E 644 645 5
E 645 646 5
E 646 647 5
E 647 648 5
E 648 649 5
E 649 650 5
E 650 651 5
E 651 652 5
E 652 653 5
E 653 654 5
E 654 655 5
E 658 659 5
E 659 660 5
E 661 662 5
E 663 664 5
E 664 665 5
E 640 667 13
E 641 668 13
E 642 669 13
E 643 670 13
E 646 673 13
E 647 674 13
E 648 675 13
E 649 676 13
E 650 677 13
E 651 678 13
E 652 679 13
E 653 680 13
E 655 682 13
E 656 684 13
E 657 686 13
E 658 688 13
E 660 690 13
E 661 692 13
E 662 693 13
E 663 695 13
E 664 696 13
E 665 697 13
E 666 699 13
E 667 668 5
E 668 669 5
E 669 670 5
E 670 671 5
E 671 672 5
E 672 673 5
E 673 674 5
E 674 675 5
E 675 676 5
E 676 677 5
E 677 678 5
E 678 679 5
E 679 680 5
E 680 681 5
E 681 682 5
E 682 683 5
E 683 684 5
E 684 685 5
E 685 686 5
E 686 687 5
E 687 688 5
E 688 689 5
E 689 690 5
E 690 691 5
E 691 692 5
E 692 693 5
E 693 694 5
E 694 695 5
E 695 696 5
E 696 697 5
E 697 698 5
E 698 699 5
E 667 700 13
E 670 703 13
E 671 704 13
E 673 705 13
E 675 706 13
E 678 709 13
E 679 710 13
E 681 711 13
E 682 712 13
E 683 713 13
E 684 714 13
E 685 715 13
E 686 716 13
E 687 717 13
E 688 718 13
E 689 719 13
E 690 720 13
E 691 721 13
E 692 722 13
E 693 723 13
E 694 724 13
E 695 725 13
E 697 727 13
E 698 728 13
E 699 729 13
E 700 701 5
E 701 702 5
E 702 703 5
E 703 704 5
E 706 707 5
E 707 708 5
E 708 709 5
E 709 710 5
E 711 712 5
E 712 713 5
E 713 714 5
E 714 715 5
E 715 716 5
E 716 717 5
E 717 718 5
E 718 719 5
E 719 720 5
E 720 721 5
E 721 722 5
E 722 723 5
E 723 724 5
E 724 725 5
E 725 726 5
E 726 727 5
E 727 728 5
E 728 729 5
E 700 730 13
E 701 731 13
E 702 732 13
E 703 733 13
E 704 734 13
E 705 735 13
E 706 736 13
E 709 739 13
E 710 740 13
E 711 741 13
E 712 742 13
E 714 744 13
E 715 745 13
E 716 746 13
E 718 747 13
E 719 748 13
E 720 749 13
E 721 750 13
E 722 751 13
E 723 752 13
E 725 753 13
E 726 754 13
E 727 755 13
E 729 756 13
E 730 731 5
E 731 732 5
E 732 733 5
E 733 734 5
E 736 737 5
E 737 738 5
E 738 739 5
E 739 740 5
E 741 742 5
E 742 743 5
E 743 744 5
E 744 745 5
E 745 746 5
E 747 748 5
E 748 749 5
E 749 750 5
E 750 751 5
E 751 752 5
E 753 754 5
E 754 755 5
E 730 757 13
E 731 758 13
E 732 759 13
E 733 760 13
E 734 761 13
E 735 763 13
E 736 765 13
E 740 766 13
E 741 768 13
E 742 769 13
E 743 770 13
E 744 771 13
E 745 772 13
E 746 773 13
E 747 774 13
E 748 775 13
E 749 776 13
E 751 777 13
E 752 778 13
E 753 779 13
E 754 780 13
E 755 781 13
E 756 782 13
E 757 758 5
E 758 759 5
E 759 760 5
E 760 761 5
E 761 762 5
E 762 763 5
E 763 764 5
E 764 765 5
E 766 767 5
E 767 768 5
E 768 769 5
E 769 770 5
E 770 771 5
E 771 772 5
E 772 773 5
E 774 775 5
E 775 776 5
E 777 778 5
E 779 780 5
E 780 781 5
E 759 785 13
E 760 786 13
E 761 787 13
E 762 788 13
E 763 789 13
E 764 790 13
E 765 791 13
E 766 795 13
E 767 796 13
E 768 797 13
E 769 798 13
E 770 799 13
E 771 800 13
E 772 801 13
E 773 802 13
E 774 804 13
E 775 805 13
E 776 806 13
E 777 807 13
E 778 808 13
E 779 810 13
E 780 811 13
E 781 812 13
E 782 814 13
E 783 784 5
E 784 785 5
E 785 786 5
E 786 787 5
E 787 788 5
E 788 789 5
E 789 790 5
E 790 791 5
E 791 792 5
E 792 793 5
E 793 794 5
E 794 795 5
E 795 796 5
E 796 797 5
E 797 798 5
E 798 799 5
E 799 800 5
E 800 801 5
E 801 802 5
E 802 803 5
E 803 804 5
E 804 805 5
E 805 806 5
E 807 808 5
E 808 809 5
E 809 810 5
E 810 811 5
E 811 812 5
E 812 813 5
E 813 814 5
E 784 815 13
E 785 816 13
E 786 817 13
E 787 818 13
E 791 819 13
E 792 820 13
E 793 821 13
E 794 822 13
E 795 823 13
E 796 824 13
E 797 825 13
E 798 826 13
E 800 827 13
E 801 828 13
E 802 829 13
E 803 830 13
E 804 831 13
E 805 832 13
E 806 833 13
E 807 835 13
E 808 836 13
E 810 837 13
E 812 838 13
E 813 839 13
E 814 840 13
E 815 816 5
E 816 817 5
E 817 818 5
E 819 820 5
E 820 821 5
E 821 822 5
E 822 823 5
E 823 824 5
E 824 825 5
E 825 826 5
E 827 828 5
E 828 829 5
E 829 830 5
E 830 831 5
E 831 832 5
E 832 833 5
E 833 834 5
E 834 835 5
E 835 836 5
E 838 839 5
E 839 840 5
E 815 842 13
E 816 843 13
E 818 844 13
E 819 848 13
E 820 849 13
E 821 850 13
E 822 851 13
E 823 852 13
E 824 853 13
E 825 854 13
E 826 855 13
E 827 856 13
E 828 857 13
E 829 858 13
E 830 859 13
E 831 860 13
E 832 861 13
E 833 862 13
E 834 863 13
E 835 864 13
E 836 865 13
E 837 866 13
E 838 867 13
E 839 868 13
E 840 869 13
E 841 842 5
E 842 843 5
E 844 845 5
E 845 846 5
E 846 847 5
E 847 848 5
E 848 849 5
E 849 850 5
E 850 851 5
E 851 852 5
E 852 853 5
E 853 854 5
E 854 855 5
E 856 857 5
E 857 858 5
E 858 859 5
E 859 860 5
E 860 861 5
E 861 862 5
E 862 863 5
E 863 864 5
E 864 865 5
E 867 868 5
E 868 869 5
E 841 870 13
E 842 871 13
E 843 872 13
E 844 873 13
E 845 874 13
E 846 875 13
E 847 876 13
E 848 877 13
E 852 878 13
E 853 879 13
E 854 880 13
E 855 881 13
E 856 883 13
E 857 884 13
E 858 885 13
E 859 886 13
E 861 888 13
E 862 889 13
E 863 890 13
E 864 891 13
E 865 892 13
E 866 894 13
E 867 896 13
E 868 897 13
E 869 898 13
E 870 871 5
E 871 872 5
E 873 874 5
E 874 875 5
E 875 876 5
E 876 877 5
E 878 879 5
E 879 880 5
E 880 881 5
E 881 882 5
E 882 883 5
E 883 884 5
E 884 885 5
E 885 886 5
E 886 887 5
E 887 888 5
E 888 889 5
E 889 890 5
E 890 891 5
E 891 892 5
E 892 893 5
E 893 894 5
E 894 895 5
E 895 896 5
E 896 897 5
E 897 898 5
END

SECTION Terminals
Terminals 10
T 12
T 29
T 33
T 34
T 63
T 64
T 74
T 93
T 160
T 799
END

EOF
